============================[ Problem Statistics ]=============================
|                                                                             |
|  Number of variables:             3                                         |
|  Number of clauses:               1                                         |
|  Parse time:                   0.00 s                                       |
|  Eliminated clauses:           0.00 Mb                                      |
|  Simplification time:          0.00 s                                       |
|                                                                             |
============================[ Search Statistics ]==============================
| Conflicts |          ORIGINAL         |          LEARNT          | Progress |
|           |    Vars  Clauses Literals |    Limit  Clauses Lit/Cl |          |
===============================================================================
===============================================================================
restarts              : 1
conflicts             : 0              (0 /sec)
decisions             : 1              (0.00 % random) (469 /sec)
propagations          : 0              (0 /sec)
conflict literals     : 0              ( nan % deleted)
Memory used           : 0.18 MB
CPU time              : 0.002131 s

SATISFIABLE
